lbl,CUST NO.,READY TIME,XCOORD.,YCOORD.,DEMAND,DUE DATE,SERVICE TIME
17,177,86,16,138,10,266,90
17,3,93,10,137,30,273,90
17,88,185,8,138,30,365,90
17,8,279,6,135,40,459,90
17,186,372,3,135,20,552,90
17,127,465,2,132,10,645,90
17,98,563,10,134,10,743,90
17,157,658,14,131,10,838,90
